c 1 Unweighted
c 2 Connected
c 3 Wgt
c 4 Src
c 5 Directed
c 6 Edges
c 7 Cycle
c 8 BFS
c 9 DFS
c 10 Weighted
c 11 Algorithms
c 12 Number
c 13 Undirected
c 14 GraphLibrary
c 15 ShortestPath
p cnf 15 29
14 0
3 -10 0
3 -1 0
10 1 -3 0
-10 -1 0
4 -8 0
4 -9 0
8 9 -4 0
-8 -9 0
6 -13 0
6 -5 0
13 5 -6 0
-13 -5 0
11 -7 0
11 -12 0
11 -15 0
11 -2 0
7 12 15 2 -11 0
14 -3 0
14 -11 0
14 -6 0
14 -4 0
3 -14 0
6 -14 0
-7 5 0
-15 5 0
-15 10 0
-2 13 0
-2 4 0
